NAME          ClpDefau  FREE
ROWS
 N  OBJROW
 L  ZMUNI1_PCT
 L  ZMUNI2_PCT
 L  ZMUNI3_PCT
 L  ZMUNI4_PCT
 L  ZMUNI5_PCT
 L  ZMUNI6_PCT
 L  ZMUNI7_PCT
 L  ZMUNI8_PCT
 L  ZMUNI9_PCT
COLUMNS
    QMUNI1 OBJROW 1.          
    QMUNI1 ZMUNI1_PCT 31086.1587  
    QMUNI1 ZMUNI2_PCT 2117.9199   
    QMUNI1 ZMUNI3_PCT 4595.7565   
    QMUNI1 ZMUNI4_PCT 3383.4457   
    QMUNI1 ZMUNI5_PCT 588.2263    
    QMUNI1 ZMUNI6_PCT 790.5961    
    QMUNI1 ZMUNI7_PCT 2573.7762   
    QMUNI1 ZMUNI8_PCT 1884.4605   
    QMUNI1 ZMUNI9_PCT 973.1293    
    QMUNI2 OBJROW 1.          
    QMUNI2 ZMUNI1_PCT 1976.3946   
    QMUNI2 ZMUNI2_PCT 36400.795   
    QMUNI2 ZMUNI3_PCT 2784.729    
    QMUNI2 ZMUNI4_PCT 2867.5079   
    QMUNI2 ZMUNI5_PCT 521.2783    
    QMUNI2 ZMUNI6_PCT 578.6896    
    QMUNI2 ZMUNI7_PCT 1592.2546   
    QMUNI2 ZMUNI8_PCT 1666.6413   
    QMUNI2 ZMUNI9_PCT 1584.0531   
    QMUNI3 OBJROW 1.          
    QMUNI3 ZMUNI1_PCT 4750.4425   
    QMUNI3 ZMUNI2_PCT 3167.7246   
    QMUNI3 ZMUNI3_PCT 32350.9216  
    QMUNI3 ZMUNI4_PCT 5508.0413   
    QMUNI3 ZMUNI5_PCT 1061.4395   
    QMUNI3 ZMUNI6_PCT 1142.5019   
    QMUNI3 ZMUNI7_PCT 2909.0881   
    QMUNI3 ZMUNI8_PCT 2484.5124   
    QMUNI3 ZMUNI9_PCT 1793.0985   
    QMUNI4 OBJROW 1.          
    QMUNI4 ZMUNI1_PCT 3573.7991   
    QMUNI4 ZMUNI2_PCT 3223.2284   
    QMUNI4 ZMUNI3_PCT 5741.3101   
    QMUNI4 ZMUNI4_PCT 111597.2519 
    QMUNI4 ZMUNI5_PCT 542.0684    
    QMUNI4 ZMUNI6_PCT 652.6947    
    QMUNI4 ZMUNI7_PCT 1905.4412   
    QMUNI4 ZMUNI8_PCT 1612.0911   
    QMUNI4 ZMUNI9_PCT 955.2002    
    QMUNI5 OBJROW 1.          
    QMUNI5 ZMUNI1_PCT 671.5774    
    QMUNI5 ZMUNI2_PCT 548.7442    
    QMUNI5 ZMUNI3_PCT 621.4142    
    QMUNI5 ZMUNI4_PCT 529.8614    
    QMUNI5 ZMUNI5_PCT 38693.8095  
    QMUNI5 ZMUNI6_PCT 3509.903    
    QMUNI5 ZMUNI7_PCT 1169.9676   
    QMUNI5 ZMUNI8_PCT 896.4539    
    QMUNI5 ZMUNI9_PCT 909.2331    
    QMUNI6 OBJROW 1.          
    QMUNI6 ZMUNI1_PCT 572.0138    
    QMUNI6 ZMUNI2_PCT 356.2927    
    QMUNI6 ZMUNI3_PCT 476.4557    
    QMUNI6 ZMUNI4_PCT 361.6333    
    QMUNI6 ZMUNI5_PCT 3650.2838   
    QMUNI6 ZMUNI6_PCT 35630.4169  
    QMUNI6 ZMUNI7_PCT 1173.0194   
    QMUNI6 ZMUNI8_PCT 723.2666    
    QMUNI6 ZMUNI9_PCT 569.5343    
    QMUNI7 OBJROW 1.          
    QMUNI7 ZMUNI1_PCT 1699.4476   
    QMUNI7 ZMUNI2_PCT 1066.2079   
    QMUNI7 ZMUNI3_PCT 1515.5792   
    QMUNI7 ZMUNI4_PCT 1169.5861   
    QMUNI7 ZMUNI5_PCT 588.9892    
    QMUNI7 ZMUNI6_PCT 813.4842    
    QMUNI7 ZMUNI7_PCT 37836.4563  
    QMUNI7 ZMUNI8_PCT 2863.3118   
    QMUNI7 ZMUNI9_PCT 1065.445    
    QMUNI8 OBJROW 1.          
    QMUNI8 ZMUNI1_PCT 1085.6628   
    QMUNI8 ZMUNI2_PCT 948.143     
    QMUNI8 ZMUNI3_PCT 1112.175    
    QMUNI8 ZMUNI4_PCT 845.9091    
    QMUNI8 ZMUNI5_PCT 35.4766     
    QMUNI8 ZMUNI6_PCT 145.9122    
    QMUNI8 ZMUNI7_PCT 2760.3149   
    QMUNI8 ZMUNI8_PCT 31896.5912  
    QMUNI8 ZMUNI9_PCT 1290.5121   
    QMUNI9 OBJROW 1.          
    QMUNI9 ZMUNI1_PCT 687.7899    
    QMUNI9 ZMUNI2_PCT 985.527     
    QMUNI9 ZMUNI3_PCT 767.5171    
    QMUNI9 ZMUNI4_PCT 662.2314    
    QMUNI9 ZMUNI5_PCT 675.5829    
    QMUNI9 ZMUNI6_PCT 614.9292    
    QMUNI9 ZMUNI7_PCT 975.7995    
    QMUNI9 ZMUNI8_PCT 1390.0757   
    QMUNI9 ZMUNI9_PCT 30819.7022  
RHS
    RHS ZMUNI1_PCT 1.3342621456
    RHS ZMUNI2_PCT  -0.18224848
    RHS ZMUNI3_PCT 0.3825634497
    RHS ZMUNI4_PCT  -2.82718353
    RHS ZMUNI5_PCT  -0.68108151
    RHS ZMUNI6_PCT 0.3059365706
    RHS ZMUNI7_PCT 0.4438211227
    RHS ZMUNI8_PCT 0.4367059159
    RHS ZMUNI9_PCT 1.081950424 
BOUNDS
 LO BOUND QMUNI1 -0.000541314
 UP BOUND QMUNI1      1.1e+10
 LO BOUND QMUNI2 -0.000418595
 UP BOUND QMUNI2      1.1e+10
 LO BOUND QMUNI3 -0.000473532
 UP BOUND QMUNI3      1.1e+10
 LO BOUND QMUNI4 -0.000198248
 UP BOUND QMUNI4      1.1e+10
 LO BOUND QMUNI5 -0.000304733
 UP BOUND QMUNI5      1.1e+10
 LO BOUND QMUNI6 -0.000410526
 UP BOUND QMUNI6      1.1e+10
 LO BOUND QMUNI7  -6.85271e-5
 UP BOUND QMUNI7      1.1e+10
 LO BOUND QMUNI8 -0.000213686
 UP BOUND QMUNI8      1.1e+10
 LO BOUND QMUNI9 -0.000210426
 UP BOUND QMUNI9      1.1e+10
ENDATA
